c FILE /home/rafael/Documents/HappySet/MIHS/inputs/happygen/output/graph_d_regular_k20_p0.3_v100_20241127_084129.txt
c SOURCE This is a d-regular graph formed for the happy graph colouring problem.
c DESCRIPTION It was generated using the problem generator of Rhyd Lewis
c
c GRAPH STATS
c Seed                             = -1222323140
c Number of Nodes                  = 100
c Number of colours k              = 20
c Number of pre-assignments        = 30
c Degree of all vertices           = 6
c Density                          = 0.0606061
c 
c The degrees of nodes 1 to 100, respectively, are as follows 
c [6, 6, 6, 6, 6, 6, 6, 6, 6, 6, 6, 6, 6, 6, 6, 6, 6, 6, 6, 6, 6, 6, 6, 6, 6, 6, 
c  6, 6, 6, 6, 6, 6, 6, 6, 6, 6, 6, 6, 6, 6, 6, 6, 6, 6, 6, 6, 6, 6, 6, 6, 6, 
c  6, 6, 6, 6, 6, 6, 6, 6, 6, 6, 6, 6, 6, 6, 6, 6, 6, 6, 6, 6, 6, 6, 6, 6, 6, 
c  6, 6, 6, 6, 6, 6, 6, 6, 6, 6, 6, 6, 6, 6, 6, 6, 6, 6, 6, 6, 6, 6, 6, 6] 
c  
p edge 100 300 20
e 1 23
e 1 28
e 1 44
e 1 71
e 1 80
e 1 82
e 2 14
e 2 49
e 2 53
e 2 62
e 2 82
e 2 99
e 3 24
e 3 31
e 3 43
e 3 70
e 3 84
e 3 86
e 4 6
e 4 13
e 4 17
e 4 30
e 4 37
e 4 81
e 5 21
e 5 24
e 5 66
e 5 74
e 5 86
e 5 95
e 6 29
e 6 42
e 6 43
e 6 47
e 6 76
e 7 20
e 7 44
e 7 59
e 7 76
e 7 94
e 7 99
e 8 32
e 8 45
e 8 51
e 8 60
e 8 64
e 8 74
e 9 20
e 9 25
e 9 66
e 9 69
e 9 92
e 9 100
e 10 11
e 10 27
e 10 41
e 10 49
e 10 50
e 10 63
e 11 35
e 11 46
e 11 67
e 11 68
e 11 84
e 12 26
e 12 32
e 12 75
e 12 81
e 12 90
e 12 91
e 13 26
e 13 32
e 13 72
e 13 76
e 13 89
e 14 57
e 14 64
e 14 75
e 14 83
e 14 85
e 15 33
e 15 45
e 15 55
e 15 69
e 15 73
e 15 79
e 16 42
e 16 49
e 16 76
e 16 78
e 16 82
e 16 98
e 17 58
e 17 62
e 17 66
e 17 74
e 17 100
e 18 24
e 18 30
e 18 45
e 18 46
e 18 93
e 18 100
e 19 24
e 19 40
e 19 47
e 19 54
e 19 58
e 19 96
e 20 28
e 20 40
e 20 47
e 20 61
e 21 29
e 21 35
e 21 51
e 21 52
e 21 62
e 22 38
e 22 39
e 22 55
e 22 56
e 22 71
e 22 75
e 23 41
e 23 63
e 23 81
e 23 88
e 23 96
e 24 60
e 24 61
e 25 31
e 25 56
e 25 77
e 25 79
e 25 87
e 26 28
e 26 40
e 26 43
e 26 89
e 27 45
e 27 47
e 27 67
e 27 71
e 27 99
e 28 51
e 28 53
e 28 93
e 29 46
e 29 62
e 29 71
e 29 100
e 30 38
e 30 55
e 30 57
e 30 70
e 31 50
e 31 54
e 31 67
e 31 87
e 32 67
e 32 84
e 32 94
e 33 36
e 33 41
e 33 84
e 33 85
e 33 88
e 34 39
e 34 46
e 34 53
e 34 74
e 34 80
e 34 85
e 35 48
e 35 51
e 35 61
e 35 79
e 36 59
e 36 68
e 36 75
e 36 85
e 36 91
e 37 45
e 37 74
e 37 79
e 37 80
e 37 95
e 38 52
e 38 65
e 38 91
e 38 94
e 39 52
e 39 53
e 39 67
e 39 68
e 40 58
e 40 72
e 40 78
e 41 48
e 41 52
e 41 60
e 42 61
e 42 80
e 42 90
e 42 94
e 43 81
e 43 86
e 43 94
e 44 52
e 44 54
e 44 76
e 44 88
e 45 83
e 46 57
e 46 65
e 47 54
e 47 72
e 48 50
e 48 59
e 48 75
e 48 81
e 49 77
e 49 90
e 49 95
e 50 55
e 50 68
e 50 73
e 51 77
e 51 98
e 52 62
e 53 94
e 53 98
e 54 59
e 54 97
e 55 88
e 55 89
e 56 69
e 56 74
e 56 82
e 56 96
e 57 70
e 57 76
e 57 80
e 58 61
e 58 63
e 58 97
e 59 71
e 59 97
e 60 68
e 60 92
e 60 99
e 61 91
e 62 79
e 63 77
e 63 90
e 63 99
e 64 73
e 64 86
e 64 87
e 64 97
e 65 68
e 65 72
e 65 90
e 65 96
e 66 82
e 66 87
e 66 92
e 67 86
e 69 72
e 69 89
e 69 95
e 70 73
e 70 85
e 70 95
e 71 78
e 72 77
e 73 85
e 73 87
e 75 83
e 77 99
e 78 83
e 78 93
e 78 97
e 79 82
e 80 98
e 81 100
e 83 88
e 83 95
e 84 91
e 84 96
e 86 98
e 87 92
e 88 96
e 89 93
e 89 97
e 90 92
e 91 92
e 93 98
e 93 100
n 1 2
n 2 8
n 9 16
n 13 1
n 15 20
n 18 19
n 21 18
n 22 11
n 27 13
n 28 2
n 34 11
n 36 3
n 40 17
n 41 15
n 42 4
n 43 6
n 54 3
n 57 14
n 59 3
n 60 15
n 61 4
n 64 12
n 67 13
n 70 14
n 77 7
n 81 6
n 83 10
n 89 1
n 96 5
n 98 9
